InboundTrucks  = 20;
OutboundTrucks = 13;
InboundDoors   = 2;
OutboundDoors  = 1;
ReleaseTime    = [1,41,55,51,46,17,1,30,35,22,15,27,56,1,54,4,19,8,38,19];
UnloadTime     = [8,10,10,4,8,11,21,5,5,11,24,3,8,16,1,4,1,19,14,1];
LoadTime       = [4,5,5,19,2,12,19,6,4,5,13,13,7];
TransferTime   = [| 0,0,0,0,0,0,0,0,0,0,5,2,0 | 0,0,0,0,0,1,0,0,0,0,0,0,0 | 4,6,0,0,0,0,0,4,0,0,0,0,0 | 0,0,0,0,1,0,0,0,0,0,0,0,0 | 0,4,0,0,1,0,0,0,2,0,0,0,0 | 0,0,4,0,0,0,0,5,0,5,5,0,0 | 4,0,0,0,1,4,0,0,0,0,0,0,0 | 0,0,0,2,0,0,5,0,2,0,0,0,0 | 5,0,3,0,0,0,0,0,0,0,0,0,0 | 0,3,0,0,1,0,6,0,0,2,1,3,2 | 1,1,0,7,0,0,0,3,0,0,0,0,2 | 0,0,0,0,0,4,5,0,0,0,0,0,0 | 2,0,0,0,0,4,1,0,0,0,0,0,1 | 0,2,0,0,5,0,0,0,1,0,3,1,0 | 0,0,0,4,0,5,4,4,0,0,0,0,0 | 3,0,0,0,0,0,0,0,0,0,0,5,3 | 6,1,0,0,3,0,0,0,0,0,2,3,0 | 0,0,0,0,0,0,0,0,5,0,0,0,0 | 0,8,0,0,0,0,0,0,6,5,0,0,0 | 0,0,0,0,3,0,12,0,0,0,0,0,0 |];
